p cnf 14 31
-14 -13 4 0
14 10 4 0
-14 9 -8 0
-14 9 -3 0
-14 -5 -2 0
-14 4 2 0
-14 4 -1 0
-13 -12 -11 0
13 -10 7 0
-13 -9 3 0
13 9 -3 0
-13 -8 -7 0
13 8 1 0
-13 7 -6 0
-12 -10 -8 0
12 -8 -3 0
12 6 2 0
-12 6 -1 0
-12 5 -4 0
-11 9 -7 0
-11 -8 -4 0
11 -5 3 0
-11 -3 -1 0
10 9 1 0
-10 8 -3 0
10 5 2 0
10 3 1 0
-8 -7 -6 0
8 7 -3 0
7 -6 -3 0
5 3 1 0
